
  12   12
  10   10   10   10   10   10   10   10   10   10   10   10

   0   0   0   0   0   0   0   0   0   0   0   0   0   6 2 3 4 6 7 11 
   8   0   5   0   1   0   0   0   0   1   0   0   1   3 10 9 8 
  10   0   0   0   4   0   0   0   0   7   0   0   0   1 5 
   9   0   0   1   0   1   0   1   0   5   0   0   6   1 5 
  10   5   0   0  10   5   0   0   1   0   0   0   0   2 9 8 
  10   0   0   0   0   0   0   7   0   0   5   1   0   1 10 
   7   0   0   0   0   0   1   0   8   0   0   8   0   1 8 
   7   0   0   0   0   9   0   5   5   0   0   0   0   1 12
   2   0   0   0   0   0   0   0   0   7   0   0   5   1 12
   5   0   0   0   0   0   0   7   8   0   0   0   0   1 12
   5   0   0   9   5   5   9   0   3   0   0   6   8   1 12
   0   0   0   0   0   0   0   0   0   0   0   0   0   0 
